objective value:                                  -80
t_x8                                                1 	(obj:-100)
t_y8_115                                            1 	(obj:1)
t_y8_16                                             1 	(obj:1)
t_y8_379                                            1 	(obj:1)
t_y8_225                                            1 	(obj:1)
t_y8_199                                            1 	(obj:1)
t_y8_93                                             1 	(obj:1)
t_y8_44                                             1 	(obj:1)
t_y8_47                                             1 	(obj:1)
t_y8_24                                             1 	(obj:1)
t_y8_65                                             1 	(obj:1)
t_y8_315                                            1 	(obj:1)
t_y8_53                                             1 	(obj:1)
t_y8_423                                            1 	(obj:1)
t_y8_127                                            1 	(obj:1)
t_y8_135                                            1 	(obj:1)
t_y8_71                                             1 	(obj:1)
t_y8_273                                            1 	(obj:1)
t_y8_174                                            1 	(obj:1)
t_y8_413                                            1 	(obj:1)
t_y8_271                                            1 	(obj:1)
